c description: There is a graph of 9 vertices with a 2-clique and a 2-coloring
c generator: CNFgen (0.9.0)
c copyright: (C) 2012-2020 Massimo Lauria <massimo.lauria@uniroma1.it>
c url: https://massimolauria.net/cnfgen
c
p cnf 72 245
-37 -38 0
-37 -39 0
-37 -40 0
-37 -41 0
-37 -42 0
-37 -43 0
-37 -44 0
-37 -45 0
-38 -39 0
-38 -40 0
-38 -41 0
-38 -42 0
-38 -43 0
-38 -44 0
-38 -45 0
-39 -40 0
-39 -41 0
-39 -42 0
-39 -43 0
-39 -44 0
-39 -45 0
-40 -41 0
-40 -42 0
-40 -43 0
-40 -44 0
-40 -45 0
-41 -42 0
-41 -43 0
-41 -44 0
-41 -45 0
-42 -43 0
-42 -44 0
-42 -45 0
-43 -44 0
-43 -45 0
-44 -45 0
37 38 39 40 41 42 43 44 45 0
-46 -47 0
-46 -48 0
-46 -49 0
-46 -50 0
-46 -51 0
-46 -52 0
-46 -53 0
-46 -54 0
-47 -48 0
-47 -49 0
-47 -50 0
-47 -51 0
-47 -52 0
-47 -53 0
-47 -54 0
-48 -49 0
-48 -50 0
-48 -51 0
-48 -52 0
-48 -53 0
-48 -54 0
-49 -50 0
-49 -51 0
-49 -52 0
-49 -53 0
-49 -54 0
-50 -51 0
-50 -52 0
-50 -53 0
-50 -54 0
-51 -52 0
-51 -53 0
-51 -54 0
-52 -53 0
-52 -54 0
-53 -54 0
46 47 48 49 50 51 52 53 54 0
-37 -46 0
-38 -47 0
-39 -48 0
-40 -49 0
-41 -50 0
-42 -51 0
-43 -52 0
-44 -53 0
-45 -54 0
1 -37 -47 0
1 -46 -38 0
2 -37 -48 0
2 -46 -39 0
3 -37 -49 0
3 -46 -40 0
4 -37 -50 0
4 -46 -41 0
5 -37 -51 0
5 -46 -42 0
6 -37 -52 0
6 -46 -43 0
7 -37 -53 0
7 -46 -44 0
8 -37 -54 0
8 -46 -45 0
9 -38 -48 0
9 -47 -39 0
10 -38 -49 0
10 -47 -40 0
11 -38 -50 0
11 -47 -41 0
12 -38 -51 0
12 -47 -42 0
13 -38 -52 0
13 -47 -43 0
14 -38 -53 0
14 -47 -44 0
15 -38 -54 0
15 -47 -45 0
16 -39 -49 0
16 -48 -40 0
17 -39 -50 0
17 -48 -41 0
18 -39 -51 0
18 -48 -42 0
19 -39 -52 0
19 -48 -43 0
20 -39 -53 0
20 -48 -44 0
21 -39 -54 0
21 -48 -45 0
22 -40 -50 0
22 -49 -41 0
23 -40 -51 0
23 -49 -42 0
24 -40 -52 0
24 -49 -43 0
25 -40 -53 0
25 -49 -44 0
26 -40 -54 0
26 -49 -45 0
27 -41 -51 0
27 -50 -42 0
28 -41 -52 0
28 -50 -43 0
29 -41 -53 0
29 -50 -44 0
30 -41 -54 0
30 -50 -45 0
31 -42 -52 0
31 -51 -43 0
32 -42 -53 0
32 -51 -44 0
33 -42 -54 0
33 -51 -45 0
34 -43 -53 0
34 -52 -44 0
35 -43 -54 0
35 -52 -45 0
36 -44 -54 0
36 -53 -45 0
-55 -56 0
55 56 0
-57 -58 0
57 58 0
-59 -60 0
59 60 0
-61 -62 0
61 62 0
-63 -64 0
63 64 0
-65 -66 0
65 66 0
-67 -68 0
67 68 0
-69 -70 0
69 70 0
-71 -72 0
71 72 0
-1 -55 -57 0
-1 -56 -58 0
-2 -55 -59 0
-2 -56 -60 0
-3 -55 -61 0
-3 -56 -62 0
-4 -55 -63 0
-4 -56 -64 0
-5 -55 -65 0
-5 -56 -66 0
-6 -55 -67 0
-6 -56 -68 0
-7 -55 -69 0
-7 -56 -70 0
-8 -55 -71 0
-8 -56 -72 0
-9 -57 -59 0
-9 -58 -60 0
-10 -57 -61 0
-10 -58 -62 0
-11 -57 -63 0
-11 -58 -64 0
-12 -57 -65 0
-12 -58 -66 0
-13 -57 -67 0
-13 -58 -68 0
-14 -57 -69 0
-14 -58 -70 0
-15 -57 -71 0
-15 -58 -72 0
-16 -59 -61 0
-16 -60 -62 0
-17 -59 -63 0
-17 -60 -64 0
-18 -59 -65 0
-18 -60 -66 0
-19 -59 -67 0
-19 -60 -68 0
-20 -59 -69 0
-20 -60 -70 0
-21 -59 -71 0
-21 -60 -72 0
-22 -61 -63 0
-22 -62 -64 0
-23 -61 -65 0
-23 -62 -66 0
-24 -61 -67 0
-24 -62 -68 0
-25 -61 -69 0
-25 -62 -70 0
-26 -61 -71 0
-26 -62 -72 0
-27 -63 -65 0
-27 -64 -66 0
-28 -63 -67 0
-28 -64 -68 0
-29 -63 -69 0
-29 -64 -70 0
-30 -63 -71 0
-30 -64 -72 0
-31 -65 -67 0
-31 -66 -68 0
-32 -65 -69 0
-32 -66 -70 0
-33 -65 -71 0
-33 -66 -72 0
-34 -67 -69 0
-34 -68 -70 0
-35 -67 -71 0
-35 -68 -72 0
-36 -69 -71 0
-36 -70 -72 0